
Value of objective function: 1.78417515

Actual values of the variables:
pL1_div_from_law          1.78418
comp_pos0                0.268541
comp_neg0                       0
comp_pos1                0.243485
comp_neg1                       0
comp_pos2                0.154996
comp_neg2                       0
comp_pos3               0.0988238
comp_neg3                       0
comp_pos4                0.158952
comp_neg4                       0
comp_pos5                       0
comp_neg5                       0
comp_pos6                0.422913
comp_neg6                       0
comp_pos7                0.174828
comp_neg7                       0
comp_pos8                0.180576
comp_neg8                       0
comp_pos9              0.00505994
comp_neg9                       0
comp_pos10              0.0760007
comp_neg10                      0
comp_pos11                      0
comp_neg11                      0
comp_pos12                      0
comp_neg12                      0
comp_pos13                      0
comp_neg13                      0
z_c0_t0               1.32138e+10
p0_c0_t0              1.16603e+09
p1_c0_t0               1.0423e+08
p2_c0_t0              1.51354e+10
p3_c0_t0               3.5662e+08
diff0                 3.54845e+09
normdiff0                0.268541
z_c0_t1               1.47752e+10
p0_c0_t1              1.00309e+09
p1_c0_t1              1.16885e+08
p2_c0_t1              1.68376e+10
p3_c0_t1              4.15158e+08
diff1                 3.59754e+09
normdiff1                0.243485
z_c1_t0               1.65566e+10
p0_c1_t0              1.17894e+09
p1_c1_t0              1.33926e+08
p2_c1_t0              1.76536e+10
p3_c1_t0              1.56274e+08
diff2                 2.56621e+09
normdiff2                0.154996
z_c1_t1               1.94959e+10
p0_c1_t1              1.17626e+09
p1_c1_t1              1.90527e+08
p2_c1_t1              1.99075e+10
p3_c1_t1              1.48304e+08
diff3                 1.92666e+09
normdiff3               0.0988238
z_c2_t0               7.24754e+09
p0_c2_t0              4.02242e+08
p1_c2_t0              5.46506e+07
p2_c2_t0              7.80452e+09
p3_c2_t0              1.38143e+08
diff4                 1.15201e+09
normdiff4                0.158952
z_c2_t1               7.97123e+09
p0_c2_t1              3.23272e+08
p1_c2_t1              6.38795e+07
p2_c2_t1               7.4745e+09
p3_c2_t1              1.09578e+08
diff5                           0
normdiff5                       0
z_c3_t0               1.22612e+10
p0_c3_t0              7.27752e+08
p1_c3_t0              9.34316e+07
p2_c3_t0              1.60409e+10
p3_c3_t0              5.84529e+08
diff6                 5.18542e+09
normdiff6                0.422913
z_c3_t1               1.42798e+10
p0_c3_t1              8.14927e+08
p1_c3_t1              9.56852e+07
p2_c3_t1              1.54318e+10
p3_c3_t1              4.33856e+08
diff7                 2.49651e+09
normdiff7                0.174828
z_c4_t0               7.97197e+09
p0_c4_t0              3.21212e+08
p1_c4_t0              1.04551e+08
p2_c4_t0              8.87484e+09
p3_c4_t0              1.10904e+08
diff8                 1.43954e+09
normdiff8                0.180576
z_c4_t1                8.9819e+09
p0_c4_t1              3.28825e+08
p1_c4_t1              9.62536e+07
p2_c4_t1              8.53365e+09
p3_c4_t1              6.86241e+07
diff9                 4.54479e+07
normdiff9              0.00505994
z_c5_t0               1.00642e+10
p0_c5_t0              5.66445e+08
p1_c5_t0              8.82169e+07
p2_c5_t0              1.01241e+10
p3_c5_t0              5.03208e+07
diff10                7.64883e+08
normdiff10              0.0760007
z_c5_t1                1.2016e+10
p0_c5_t1              4.13775e+08
p1_c5_t1              8.82549e+07
p2_c5_t1              1.13909e+10
p3_c5_t1              1.23109e+08
diff11                          0
normdiff11                      0
z_c6_t0               1.81204e+10
p0_c6_t0              1.03428e+09
p1_c6_t0              1.11448e+08
p2_c6_t0              1.68104e+10
p3_c6_t0              1.64267e+08
diff12                          0
normdiff12                      0
z_c6_t1               2.06345e+10
p0_c6_t1              1.10101e+09
p1_c6_t1              1.03172e+08
p2_c6_t1              1.93257e+10
p3_c6_t1              1.04568e+08
diff13                          0
normdiff13                      0
